TCS_Benchmarks/redos_fix/regexlib2_output_distinct_492_491_12_0.txt
\D*
(\D*)([A-Z])(\D*)
\D*